17	4	3
28	10	9	8	25	39	31	
0	0	0	0	0	6	5	7	5	3	2	3	2	3	4
8	0	5	0	0	3	6	8	4	6	4	3	8	11	17
5	0	2	0	0	4	8	2	1	7	3	3	5	9	17
8	0	3	0	0	5	2	7	5	7	10	3	6	10	12
9	0	0	2	0	8	1	2	8	6	4	3	7	15	17
25	0	0	1	0	3	2	8	10	7	1	1	17
150	0	0	0	1	2	9	6	9	3	2	2	13	17
250	10	0	0	0	3	6	9	5	6	6	1	17
250	0	0	0	7	7	1	8	3	6	5	2	15	17
175	0	3	0	0	3	4	5	4	1	1	2	17	17
250	8	0	0	0	8	4	2	6	4	8	2	12	13
50	0	0	3	0	6	5	6	2	4	9	2	14	17
10	0	0	0	2	3	7	4	2	1	10	2	16	17
3	0	5	0	0	8	7	1	5	10	7	1	17
8	0	0	4	0	9	2	10	4	6	1	1	17
1	5	0	0	0	4	4	5	5	9	8	2	17	17
0	0	0	0	0	3	4	3	9	5	6	0
